ACTORES = {Actor0, Actor1, Actor2, Actor3, Actor4, Actor5, Actor6, Actor7, Actor8, Actor9};
Escenas =[|1,1,1,0,1,0,1,1,19
		  |1,1,1,1,1,1,1,0,13
		  |0,0,0,1,0,1,1,0,10
		  |0,1,0,1,0,0,1,1,15
		  |0,1,1,0,0,1,0,1,11
		  |1,0,1,1,0,0,0,1,12
		  |0,1,1,1,0,0,1,0,9
		  |0,1,1,0,0,0,1,1,7
		  |1,0,1,1,0,1,0,0,12
		  |1,1,0,1,1,1,1,0,15
		  |];
Duracion=[3, 3, 3, 2, 2, 3, 4, 2];